# Solution for model GasLib-40
# Objective value = 7.4029162045816747e+01
loadshed[innode_1] 0
loadshed[innode_2] 0
loadshed[innode_3] 0
loadshed[innode_4] 0
loadshed[innode_5] 0
loadshed[innode_6] 0
loadshed[innode_7] 0
loadshed[innode_8] 0
loadshed[source_1] -5.1949776822374227e-02
loadshed[source_2] 1.0369180590573213e-01
loadshed[source_3] 4.1652941104821062e-01
loadshed[sink_1] 8.7599170850100172e-01
loadshed[sink_2] 0
loadshed[sink_3] 0
loadshed[sink_4] 0
loadshed[sink_5] 0
loadshed[sink_6] 0
loadshed[sink_7] 0
loadshed[sink_8] 0
loadshed[sink_9] 7.2951178571921671e-01
loadshed[sink_10] 0
loadshed[sink_11] 0
loadshed[sink_12] 1
loadshed[sink_13] 0
loadshed[sink_14] 0
loadshed[sink_15] 0
loadshed[sink_16] 0
loadshed[sink_17] 0
loadshed[sink_18] 0
loadshed[sink_19] 0
loadshed[sink_20] 0
loadshed[sink_21] 1
loadshed[sink_22] 0
loadshed[sink_23] 0
loadshed[sink_24] 9.2112042705265162e-01
loadshed[sink_25] 0
loadshed[sink_26] 0
loadshed[sink_27] 0
loadshed[sink_28] 0
loadshed[sink_29] 0
flow[source_1,sink_3] 1.6630303242612047e+02
flow[innode_1,sink_16] 1.6354166666666970e+01
flow[innode_6,sink_13] 2.2238139184128279e+01
flow[sink_13,sink_14] 5.8839725174616113e+00
flow[sink_14,sink_10] -10.4701941492051
flow[sink_25,sink_26] 1.7128333795418314e+02
flow[sink_26,sink_9] 0
flow[sink_9,sink_18] -4.4236093377169770e+00
flow[sink_26,sink_4] 1.5492917128751648e+02
flow[sink_4,sink_20] 3.5021504616610173e+01
flow[sink_18,sink_6] -2.0777776004383647e+01
flow[sink_25,innode_8] -1.3359469909278411e+02
flow[sink_6,sink_7] -5.5514161604940156e+01
flow[sink_6,sink_22] 1.8382218933889870e+01
flow[sink_7,sink_24] 1.2900096825764278e+00
flow[sink_22,sink_1] 2.0280522672232011e+00
flow[sink_24,sink_21] 0
flow[sink_21,sink_12] 0
flow[sink_7,sink_5] -7.3158337954183239e+01
flow[sink_5,sink_17] -8.9512504620849910e+01
flow[sink_17,sink_4] -1.0355350000423960e+02
flow[sink_17,sink_8] -2.3131712832769655e+00
flow[sink_3,sink_23] 16.3541666666697
flow[sink_8,sink_20] -1.8667337949943544e+01
flow[sink_25,sink_20] 0
flow[sink_25,sink_15] -7.6280944712193289e+01
flow[sink_15,sink_29] -5.2912527698666729e+01
flow[sink_29,sink_28] 1.6354166666667879e+01
flow[sink_29,sink_2] 5.6076750346859896e+01
flow[sink_2,sink_15] 3.9722583680193232e+01
flow[sink_29,innode_7] -1.4169761137886115e+02
flow[innode_4,sink_19] 9.2241027482551971e+01
flow[sink_19,innode_3] 2.9051703457446937e+01
flow[innode_4,innode_5] 0
flow[sink_27,innode_5] 0
flow[sink_27,sink_19] -1.6354166666679703e+01
flow[sink_10,sink_11] 3.2708333333333641e+01
flow[sink_10,innode_2] -3.0480990691758652e+01
flow[sink_10,innode_3] -2.9051703457446937e+01
flow[innode_6,sink_25] -2.2238139184128279e+01
flow[sink_11,innode_1] 1.6354166666666970e+01
flow[sink_19,innode_2] 3.0480990691758652e+01
flow[source_3,innode_4] 9.2241027482551971e+01
flow[source_2,innode_7] 1.4169761137886115e+02
flow[sink_3,innode_8] 1.3359469909278411e+02
pressure[innode_1] 7.5513583388926619e+01
pressure[innode_2] 7.7276330945204236e+01
pressure[innode_3] 7.7211999237646253e+01
pressure[innode_4] 81.01325
pressure[innode_5] 81.01325
pressure[innode_6] 7.5303184229961431e+01
pressure[innode_7] 81.01325
pressure[innode_8] 8.0457362492660579e+01
pressure[source_1] 81.01325
pressure[source_2] 81.01325
pressure[source_3] 81.01325
pressure[sink_1] 1.0132500000000002e+00
pressure[sink_2] 7.5802906622633046e+01
pressure[sink_3] 8.0457362492660579e+01
pressure[sink_4] 4.3541703514884112e+01
pressure[sink_5] 3.2916195622547235e+01
pressure[sink_6] 1.7281378533480418e+00
pressure[sink_7] 2.4902149664502771e+00
pressure[sink_8] 3.9671512163822690e+01
pressure[sink_9] 1.01325
pressure[sink_10] 7.5665284696530165e+01
pressure[sink_11] 7.5513583388926619e+01
pressure[sink_12] 1.01325
pressure[sink_13] 7.5180589084977626e+01
pressure[sink_14] 75.170059214954
pressure[sink_15] 7.5673221141633647e+01
pressure[sink_16] 7.4491933554108940e+01
pressure[sink_17] 3.9584230201833442e+01
pressure[sink_18] 1.1733093704619280e+00
pressure[sink_19] 7.7276330945204236e+01
pressure[sink_20] 4.0972363095100540e+01
pressure[sink_21] 1.01325
pressure[sink_22] 1.1451661938927971e+00
pressure[sink_23] 8.0292644481000792e+01
pressure[sink_24] 1.01325
pressure[sink_25] 7.5303184229961431e+01
pressure[sink_26] 6.3239799326974449e+01
pressure[sink_27] 7.6925200948060734e+01
pressure[sink_28] 7.6928111721753112e+01
pressure[sink_29] 7.7223393995370287e+01
interdiction[source_1,sink_3] 0
interdiction[innode_1,sink_16] 0
interdiction[innode_6,sink_13] 0
interdiction[sink_13,sink_14] 0
interdiction[sink_14,sink_10] 0
interdiction[sink_25,sink_26] 0
interdiction[sink_26,sink_9] 1
interdiction[sink_9,sink_18] 0
interdiction[sink_26,sink_4] 0
interdiction[sink_4,sink_20] 0
interdiction[sink_18,sink_6] 0
interdiction[sink_25,innode_8] 0
interdiction[sink_6,sink_7] 0
interdiction[sink_6,sink_22] 0
interdiction[sink_7,sink_24] 0
interdiction[sink_22,sink_1] 0
interdiction[sink_24,sink_21] 0
interdiction[sink_21,sink_12] 0
interdiction[sink_7,sink_5] 0
interdiction[sink_5,sink_17] 0
interdiction[sink_17,sink_4] 0
interdiction[sink_17,sink_8] 0
interdiction[sink_3,sink_23] 0
interdiction[sink_8,sink_20] 0
interdiction[sink_25,sink_20] 1
interdiction[sink_25,sink_15] 0
interdiction[sink_15,sink_29] 0
interdiction[sink_29,sink_28] 0
interdiction[sink_29,sink_2] 0
interdiction[sink_2,sink_15] 0
interdiction[sink_29,innode_7] 0
interdiction[innode_4,sink_19] 0
interdiction[sink_19,innode_3] 0
interdiction[innode_4,innode_5] 0
interdiction[sink_27,innode_5] 1
interdiction[sink_27,sink_19] 0
interdiction[sink_10,sink_11] 0
interdiction[sink_10,innode_2] 0
interdiction[sink_10,innode_3] 0
interdiction[innode_6,sink_25] 0
interdiction[sink_11,innode_1] 0
interdiction[sink_19,innode_2] 0
interdiction[source_3,innode_4] 0
interdiction[source_2,innode_7] 0
interdiction[sink_3,innode_8] 0
WCcheckFlow[source_1,sink_3] 39
WCcheckFlow[innode_1,sink_16] 1
WCcheckFlow[innode_6,sink_13] 13
WCcheckFlow[sink_13,sink_14] 12
WCcheckFlow[sink_14,sink_10] 11
WCcheckFlow[sink_25,sink_26] 15
WCcheckFlow[sink_26,sink_9] 0
WCcheckFlow[sink_9,sink_18] -1
WCcheckFlow[sink_26,sink_4] 14
WCcheckFlow[sink_4,sink_20] 1
WCcheckFlow[sink_18,sink_6] -2
WCcheckFlow[sink_25,innode_8] -36
WCcheckFlow[sink_6,sink_7] -5
WCcheckFlow[sink_6,sink_22] 2
WCcheckFlow[sink_7,sink_24] 3
WCcheckFlow[sink_22,sink_1] 1
WCcheckFlow[sink_24,sink_21] 2
WCcheckFlow[sink_21,sink_12] 1
WCcheckFlow[sink_7,sink_5] -9
WCcheckFlow[sink_5,sink_17] -10
WCcheckFlow[sink_17,sink_4] -12
WCcheckFlow[sink_17,sink_8] 1
WCcheckFlow[sink_3,sink_23] 1
WCcheckFlow[sink_8,sink_20] 0
WCcheckFlow[sink_25,sink_20] 0
WCcheckFlow[sink_25,sink_15] 6
WCcheckFlow[sink_15,sink_29] 5
WCcheckFlow[sink_29,sink_28] 1
WCcheckFlow[sink_29,sink_2] 1
WCcheckFlow[sink_2,sink_15] 0
WCcheckFlow[sink_29,innode_7] 2
WCcheckFlow[innode_4,sink_19] -3
WCcheckFlow[sink_19,innode_3] -5
WCcheckFlow[innode_4,innode_5] 1
WCcheckFlow[sink_27,innode_5] 0
WCcheckFlow[sink_27,sink_19] -1
WCcheckFlow[sink_10,sink_11] 3
WCcheckFlow[sink_10,innode_2] 1
WCcheckFlow[sink_10,innode_3] 6
WCcheckFlow[innode_6,sink_25] -14
WCcheckFlow[sink_11,innode_1] 2
WCcheckFlow[sink_19,innode_2] 0
WCcheckFlow[source_3,innode_4] -1
WCcheckFlow[source_2,innode_7] -1
WCcheckFlow[sink_3,innode_8] 37
